65 52 69 24 57 25 19 
37 67 50 32 31 29 
33 21 13 16 
59 75 9 10 12 14 17 47 
2 46 5 61 54 35 70 
72 39 36 44 40 3 
34 20 22 49 51 
18 48 23 56 7 
71 64 53 60 55 
45 43 38 41 68 1 
63 62 30 28 26 
15 11 6 4 73 
27 66 58 
42 8 74 

